275 5
10 10 10 10 10 

0 0 0 0 0 0 4 2 14 26 38 
0 0 0 0 0 0 1 3 
2 1 0 0 0 0 2 7 4 
3 2 0 0 0 0 2 9 5 
6 3 0 0 0 0 1 6 
8 3 0 0 0 0 2 12 8 
2 1 0 0 0 0 1 9 
4 3 0 0 0 0 1 10 
5 2 0 0 0 0 1 10 
8 4 0 0 0 0 1 11 
6 3 0 0 0 0 1 13 
9 3 0 0 0 0 1 13 
0 0 0 0 0 0 1 50 
0 0 0 0 0 0 4 15 21 23 24 
3 0 0 0 0 1 1 16 
7 0 0 0 0 3 1 17 
2 0 0 0 0 2 1 18 
10 0 0 0 0 4 1 19 
7 0 0 0 0 3 1 20 
10 0 0 0 0 4 1 22 
2 0 0 0 0 3 1 22 
6 0 0 0 0 1 1 25 
1 0 0 0 0 1 1 25 
5 0 0 0 0 3 1 25 
0 0 0 0 0 0 1 50 
0 0 0 0 0 0 1 27 
10 1 0 0 0 0 2 30 28 
10 2 0 0 0 0 1 29 
8 2 0 0 0 0 2 33 31 
2 2 0 0 0 0 2 33 32 
2 3 0 0 0 0 1 32 
10 3 0 0 0 0 2 36 34 
6 1 0 0 0 0 1 34 
9 1 0 0 0 0 1 35 
2 6 0 0 0 0 1 37 
1 4 0 0 0 0 1 37 
0 0 0 0 0 0 1 50 
0 0 0 0 0 0 2 39 40 
8 0 0 0 0 1 2 44 41 
3 0 0 0 0 4 2 44 43 
1 0 0 0 0 3 1 42 
10 0 0 0 0 1 1 43 
5 0 0 0 0 2 2 47 45 
3 0 0 0 0 4 2 47 45 
5 0 0 0 0 4 1 46 
8 0 0 0 0 2 1 48 
1 0 0 0 0 3 1 48 
7 0 0 0 0 1 1 49 
0 0 0 0 0 0 1 50 
0 0 0 0 0 0 4 51 63 75 87 
0 0 0 0 0 0 1 52 
3 0 0 0 1 0 2 56 53 
2 0 0 0 2 0 1 54 
7 0 0 0 1 0 2 59 55 
10 0 0 0 3 0 1 57 
1 0 0 0 5 0 1 57 
9 0 0 0 6 0 1 58 
8 0 0 0 3 0 2 61 60 
6 0 0 0 2 0 1 60 
4 0 0 0 1 0 1 62 
1 0 0 0 1 0 1 62 
0 0 0 0 0 0 1 99 
0 0 0 0 0 0 2 64 65 
8 0 0 0 1 0 2 69 67 
8 0 0 0 3 0 1 66 
5 0 0 0 2 0 1 67 
5 0 0 0 3 0 1 68 
6 0 0 0 1 0 2 73 70 
10 0 0 0 3 0 1 70 
3 0 0 0 2 0 1 71 
5 0 0 0 4 0 1 72 
8 0 0 0 4 0 1 74 
7 0 0 0 2 0 1 74 
0 0 0 0 0 0 1 99 
0 0 0 0 0 0 2 76 78 
9 1 0 0 0 0 1 77 
5 1 0 0 0 0 1 79 
10 3 0 0 0 0 1 79 
5 3 0 0 0 0 1 80 
4 1 0 0 0 0 2 82 81 
7 4 0 0 0 0 2 85 83 
10 4 0 0 0 0 1 83 
5 3 0 0 0 0 1 84 
4 2 0 0 0 0 1 86 
5 3 0 0 0 0 1 86 
0 0 0 0 0 0 1 99 
0 0 0 0 0 0 2 88 89 
4 0 1 0 0 0 2 91 90 
10 0 2 0 0 0 2 91 90 
10 0 5 0 0 0 1 92 
1 0 1 0 0 0 1 92 
9 0 2 0 0 0 1 93 
10 0 3 0 0 0 1 94 
3 0 3 0 0 0 2 97 95 
5 0 2 0 0 0 1 96 
3 0 3 0 0 0 1 98 
5 0 3 0 0 0 1 98 
0 0 0 0 0 0 1 99 
0 0 0 0 0 0 4 100 112 124 136 
0 0 0 0 0 0 2 101 102 
4 0 0 0 1 0 2 104 103 
5 0 0 0 2 0 2 104 103 
3 0 0 0 1 0 2 106 105 
9 0 0 0 2 0 1 105 
9 0 0 0 5 0 1 107 
5 0 0 0 3 0 1 107 
3 0 0 0 1 0 1 108 
3 0 0 0 6 0 1 109 
1 0 0 0 2 0 1 110 
1 0 0 0 2 0 1 111 
0 0 0 0 0 0 1 148 
0 0 0 0 0 0 2 113 114 
1 0 1 0 0 0 1 115 
7 0 3 0 0 0 1 115 
6 0 4 0 0 0 1 116 
2 0 3 0 0 0 2 119 117 
9 0 2 0 0 0 1 118 
6 0 3 0 0 0 1 120 
7 0 1 0 0 0 1 120 
6 0 4 0 0 0 2 122 121 
1 0 2 0 0 0 1 123 
7 0 2 0 0 0 1 123 
0 0 0 0 0 0 1 148 
0 0 0 0 0 0 2 125 128 
4 0 1 0 0 0 2 132 126 
4 0 3 0 0 0 1 127 
1 0 1 0 0 0 2 130 129 
5 0 2 0 0 0 2 132 131 
3 0 4 0 0 0 1 131 
7 0 2 0 0 0 1 131 
3 0 2 0 0 0 1 133 
5 0 3 0 0 0 1 133 
3 0 4 0 0 0 1 134 
8 0 3 0 0 0 1 135 
0 0 0 0 0 0 1 148 
0 0 0 0 0 0 2 137 138 
10 0 0 1 0 0 1 139 
1 0 0 4 0 0 2 143 141 
5 0 0 2 0 0 1 140 
5 0 0 2 0 0 2 143 142 
9 0 0 3 0 0 1 142 
6 0 0 3 0 0 1 144 
4 0 0 2 0 0 1 144 
4 0 0 2 0 0 1 145 
9 0 0 4 0 0 1 146 
4 0 0 2 0 0 1 147 
0 0 0 0 0 0 1 148 
0 0 0 0 0 0 4 149 171 193 215 
0 0 0 0 0 0 2 150 152 
8 0 1 1 0 0 1 151 
6 0 3 4 0 0 2 155 153 
3 0 2 1 0 0 2 155 153 
1 0 5 1 0 0 1 154 
10 0 3 2 0 0 2 157 156 
4 0 6 3 0 0 2 157 156 
4 0 1 5 0 0 2 160 158 
5 0 2 1 0 0 2 160 159 
3 0 1 1 0 0 1 159 
9 0 4 3 0 0 1 161 
3 0 4 3 0 0 1 161 
7 0 2 3 0 0 1 162 
5 0 2 4 0 0 1 163 
7 0 1 3 0 0 1 164 
2 0 2 1 0 0 1 165 
9 0 2 4 0 0 2 167 166 
1 0 4 2 0 0 1 168 
7 0 3 2 0 0 1 168 
2 0 1 4 0 0 1 169 
10 0 1 2 0 0 1 170 
0 0 0 0 0 0 1 275 
0 0 0 0 0 0 1 172 
7 0 1 1 0 0 1 173 
7 0 2 5 0 0 2 176 174 
7 0 4 4 0 0 1 175 
7 0 3 4 0 0 2 178 177 
3 0 4 2 0 0 1 177 
7 0 5 1 0 0 2 182 179 
3 0 2 1 0 0 2 182 179 
6 0 2 3 0 0 2 183 180 
6 0 2 3 0 0 1 181 
9 0 2 1 0 0 2 185 184 
8 0 5 3 0 0 2 185 184 
2 0 3 2 0 0 1 184 
7 0 2 3 0 0 1 186 
8 0 3 2 0 0 1 186 
5 0 1 3 0 0 1 187 
8 0 3 4 0 0 1 188 
5 0 2 2 0 0 1 189 
4 0 1 1 0 0 1 190 
2 0 2 3 0 0 1 191 
8 0 1 2 0 0 1 192 
0 0 0 0 0 0 1 275 
0 0 0 0 0 0 3 194 202 208 
2 0 0 0 1 1 3 213 210 195 
10 0 0 0 3 2 1 196 
3 0 0 0 3 1 1 197 
2 0 0 0 2 3 1 198 
2 0 0 0 5 4 1 199 
5 0 0 0 3 3 1 200 
3 0 0 0 3 3 1 201 
4 0 0 0 2 3 2 212 203 
4 0 0 0 2 2 2 212 204 
9 0 0 0 1 3 1 204 
9 0 0 0 2 3 1 205 
2 0 0 0 3 5 1 206 
2 0 0 0 2 1 1 207 
7 0 0 0 1 2 1 209 
4 0 0 0 3 3 1 210 
7 0 0 0 4 2 1 211 
3 0 0 0 1 2 1 211 
9 0 0 0 2 2 1 214 
2 0 0 0 4 2 1 214 
4 0 0 0 3 3 1 214 
0 0 0 0 0 0 1 275 
0 0 0 0 0 0 1 216 
10 1 0 0 0 0 2 218 217 
1 4 0 0 0 0 2 223 220 
1 3 0 0 0 0 1 219 
2 3 0 0 0 0 1 220 
3 2 0 0 0 0 1 221 
8 3 0 0 0 0 2 225 222 
5 2 0 0 0 0 1 224 
9 4 0 0 0 0 1 224 
7 1 0 0 0 0 1 226 
8 2 0 0 0 0 1 226 
0 0 0 0 0 0 4 227 239 251 263 
0 0 0 0 0 0 1 228 
1 0 1 0 0 0 1 229 
2 0 2 0 0 0 1 230 
3 0 3 0 0 0 2 233 231 
10 0 3 0 0 0 1 232 
1 0 2 0 0 0 3 237 235 234 
1 0 3 0 0 0 2 237 236 
7 0 3 0 0 0 1 236 
7 0 1 0 0 0 1 236 
3 0 3 0 0 0 1 238 
10 0 4 0 0 0 1 238 
0 0 0 0 0 0 1 275 
0 0 0 0 0 0 2 240 242 
5 0 0 0 0 1 1 241 
10 0 0 0 0 4 1 243 
10 0 0 0 0 3 1 243 
3 0 0 0 0 1 1 244 
8 0 0 0 0 3 2 247 245 
2 0 0 0 0 2 2 248 246 
7 0 0 0 0 3 1 249 
10 0 0 0 0 4 1 248 
3 0 0 0 0 2 1 250 
10 0 0 0 0 2 1 250 
0 0 0 0 0 0 1 275 
0 0 0 0 0 0 1 252 
4 0 0 0 0 1 2 258 253 
3 0 0 0 0 4 1 254 
7 0 0 0 0 1 1 255 
10 0 0 0 0 3 3 261 260 256 
1 0 0 0 0 3 1 257 
6 0 0 0 0 5 1 259 
8 0 0 0 0 2 1 260 
4 0 0 0 0 3 1 262 
2 0 0 0 0 2 1 262 
6 0 0 0 0 1 1 262 
0 0 0 0 0 0 1 275 
0 0 0 0 0 0 3 264 265 268 
6 0 0 0 1 0 2 273 266 
1 0 0 0 3 0 2 273 267 
1 0 0 0 5 0 1 267 
9 0 0 0 1 0 1 269 
8 0 0 0 3 0 1 269 
2 0 0 0 3 0 1 270 
6 0 0 0 4 0 1 271 
10 0 0 0 1 0 1 272 
2 0 0 0 2 0 1 274 
10 0 0 0 2 0 1 274 
0 0 0 0 0 0 1 275 
0 0 0 0 0 0 0 
